53 53
1 22
38 17
28 14
24 7
42 26
41 5
30 1
47 11
44 25
22 24
19 12
39 2
4 4
35 7
23 25
52 10
33 13
27 23
43 13
48 12
2 26
32 1
10 6
20 4
5 8
31 16
37 20
50 24
9 20
45 15
36 15
26 9
51 6
49 21
53 21
21 10
11 27
25 19
16 22
29 19
12 18
7 5
8 14
34 11
15 8
17 18
3 2
6 9
13 3
40 16
14 17
18 3
46 23
